Instance Name : rc208
Date : 2022-07-18
Solution
Route 1 : 90 69 98 88 53 78 73 79 7 6 2 8 46 4 45 5 3 1 43 40 36 35 37 41 54 93 96 80
Route 2 : 92 95 71 72 38 39 44 42 61 81 94 67 62 50 34 31 29 27 26 28 30 32 33 76 89 63 85 51 84 56 91 66
Route 3 : 65 64 83 52 99 82 12 14 47 16 15 11 9 87 59 75 58 77 25 23 21 48 18 19 49 20 22 24 57 86 74 97 13 10 17 60 55 100 70 68
